p cnf 162 417
a 6 8 11 14 35 37 40 43 86 94 26 28 2 4 136 156 1 34 20 25 0
d 21 86 94 0
d 46 20 25 0
d 130 1 34 0
d 150 136 156 0
d 3 2 0
d 5 2 4 0
d 7 6 0
d 9 8 0
d 10 6 8 0
d 12 11 0
d 13 6 8 11 0
d 15 14 0
d 16 6 8 11 14 0
d 17 2 4 6 8 11 14 0
d 18 1 2 4 6 8 11 14 0
d 19 1 2 4 6 8 11 14 0
d 22 20 86 94 0
d 23 20 86 94 0
d 24 1 2 4 6 8 11 14 20 86 94 0
d 27 26 0
d 29 28 0
d 30 26 28 0
d 31 25 26 28 0
d 32 25 26 28 0
d 33 1 2 4 6 8 11 14 20 86 94 25 26 28 0
d 36 35 0
d 38 37 0
d 39 35 37 0
d 41 40 0
d 42 35 37 40 0
d 44 43 0
d 45 35 37 40 43 0
d 47 35 37 40 43 20 25 0
d 48 34 35 37 40 43 20 25 0
d 49 34 35 37 40 43 20 25 0
d 50 1 2 4 6 8 11 14 20 86 94 25 26 28 34 35 37 40 43 0
d 51 6 0
d 52 6 8 0
d 53 6 8 0
d 54 6 8 0
d 55 11 6 0
d 56 11 6 8 0
d 57 11 6 8 0
d 58 6 8 11 0
d 59 6 8 11 14 0
d 60 6 8 11 14 0
d 61 6 8 11 14 0
d 62 11 14 0
d 63 35 6 0
d 64 35 6 8 0
d 65 11 14 35 6 8 0
d 66 11 14 35 6 8 0
d 67 6 8 11 14 35 0
d 68 35 37 0
d 69 35 37 6 8 11 14 0
d 70 35 37 0
d 71 35 37 6 8 11 14 0
d 72 35 37 6 8 11 14 0
d 73 6 8 11 14 35 37 0
d 74 40 6 0
d 75 40 6 8 0
d 76 11 14 35 0
d 77 11 14 35 37 0
d 78 40 6 8 11 14 35 37 0
d 79 40 6 8 11 14 35 37 0
d 80 6 8 11 14 35 37 40 0
d 81 35 37 40 43 0
d 82 6 8 11 14 35 37 40 43 0
d 83 6 8 11 14 35 37 40 43 0
d 84 6 8 11 14 35 37 40 43 0
d 85 40 43 0
d 87 86 6 0
d 88 86 6 8 0
d 89 40 43 86 6 8 0
d 90 11 14 35 37 40 43 86 6 8 0
d 91 11 14 35 37 40 43 86 6 8 0
d 92 6 8 11 14 35 37 40 43 86 0
d 93 86 0
d 95 86 94 0
d 96 86 94 6 8 11 14 0
d 97 35 37 40 43 86 94 6 8 11 14 0
d 98 35 37 40 43 86 94 6 8 11 14 0
d 99 6 8 11 14 35 37 40 43 86 94 0
d 100 40 43 86 94 0
d 101 26 6 0
d 102 26 6 8 0
d 103 26 6 8 11 14 35 37 0
d 104 40 43 86 94 26 6 8 11 14 35 37 0
d 105 40 43 86 0
d 106 94 0
d 107 40 43 86 94 0
d 108 40 43 86 94 26 6 8 11 14 35 37 0
d 109 40 43 86 94 26 6 8 11 14 35 37 0
d 110 6 8 11 14 35 37 40 43 86 94 26 0
d 111 86 94 26 0
d 112 86 94 26 28 0
d 113 6 8 11 14 35 37 40 43 0
d 114 86 94 26 28 6 8 11 14 35 37 40 43 0
d 115 86 94 0
d 116 86 94 26 0
d 117 86 94 26 28 0
d 118 86 94 26 28 6 8 11 14 35 37 40 43 0
d 119 86 94 26 28 6 8 11 14 35 37 40 43 0
d 120 6 8 11 14 35 37 40 43 86 94 26 28 0
d 121 2 6 0
d 122 2 6 8 0
d 123 26 28 2 6 8 0
d 124 11 14 35 37 40 43 86 94 0
d 125 26 28 2 6 8 11 14 35 37 40 43 86 94 0
d 126 11 14 35 37 40 43 86 94 0
d 127 26 28 2 6 8 11 14 35 37 40 43 86 94 0
d 128 26 28 2 6 8 11 14 35 37 40 43 86 94 0
d 129 6 8 11 14 35 37 40 43 86 94 26 28 2 0
d 131 86 94 26 28 0
d 132 35 37 40 43 86 94 26 28 0
d 133 2 4 6 8 11 14 35 37 40 43 86 94 26 28 0
d 134 1 34 2 4 6 8 11 14 35 37 40 43 86 94 26 28 0
d 135 6 8 11 14 35 37 40 43 86 94 26 28 2 1 34 4 0
d 137 136 6 0
d 138 136 6 8 0
d 139 136 6 8 11 14 35 37 0
d 140 26 28 2 0
d 141 4 0
d 142 26 28 2 4 0
d 143 40 43 86 94 26 28 2 4 0
d 144 136 6 8 11 14 35 37 40 43 86 94 26 28 2 4 0
d 145 40 43 86 94 26 28 2 4 0
d 146 136 6 8 11 14 35 37 40 43 86 94 26 28 2 4 0
d 147 136 6 8 11 14 35 37 40 43 86 94 26 28 2 4 0
d 148 6 8 11 14 35 37 40 43 86 94 26 28 2 1 34 4 136 0
d 149 2 4 0
d 151 2 4 136 156 0
d 152 20 25 2 4 136 156 0
d 153 6 8 11 14 35 37 40 43 20 25 2 4 136 156 0
d 154 136 0
d 155 2 4 136 0
d 157 2 4 136 156 0
d 158 86 94 26 28 2 4 136 156 0
d 159 6 8 11 14 35 37 40 43 86 94 26 28 2 4 136 156 0
d 160 6 8 11 14 35 37 40 43 20 25 2 4 136 156 86 94 26 28 0
d 161 6 8 11 14 35 37 40 43 86 94 26 28 2 1 34 4 136 20 25 156 0
d 162 1 2 4 6 8 11 14 20 86 94 25 26 28 34 35 37 40 43 136 156 0
3 2 0
-3 -2 0
-5 3 0
-5 4 0
5 -3 -4 0
7 6 0
-7 -6 0
9 8 0
-9 -8 0
-10 7 0
-10 9 0
10 -7 -9 0
12 11 0
-12 -11 0
-13 10 0
-13 12 0
13 -10 -12 0
15 14 0
-15 -14 0
-16 13 0
-16 15 0
16 -13 -15 0
-17 5 0
-17 16 0
17 -5 -16 0
18 -1 -17 0
18 1 17 0
-18 -1 17 0
-18 1 -17 0
19 18 0
-19 -18 0
22 -20 -21 0
22 20 21 0
-22 -20 21 0
-22 20 -21 0
23 22 0
-23 -22 0
24 -19 0
24 -23 0
-24 19 23 0
27 26 0
-27 -26 0
29 28 0
-29 -28 0
-30 27 0
-30 29 0
30 -27 -29 0
31 -25 -30 0
31 25 30 0
-31 -25 30 0
-31 25 -30 0
32 31 0
-32 -31 0
33 -24 0
33 -32 0
-33 24 32 0
36 35 0
-36 -35 0
38 37 0
-38 -37 0
-39 36 0
-39 38 0
39 -36 -38 0
41 40 0
-41 -40 0
-42 39 0
-42 41 0
42 -39 -41 0
44 43 0
-44 -43 0
-45 42 0
-45 44 0
45 -42 -44 0
-47 45 0
-47 46 0
47 -45 -46 0
48 -34 -47 0
48 34 47 0
-48 -34 47 0
-48 34 -47 0
49 48 0
-49 -48 0
50 -33 0
50 -49 0
-50 33 49 0
51 -6 -6 0
51 6 6 0
-51 -6 6 0
-51 6 -6 0
-52 7 0
-52 8 0
52 -7 -8 0
53 -52 -52 0
53 52 52 0
-53 -52 52 0
-53 52 -52 0
-54 51 0
-54 53 0
54 -51 -53 0
-55 11 0
-55 7 0
55 -11 -7 0
-56 55 0
-56 9 0
56 -55 -9 0
57 -56 -56 0
57 56 56 0
-57 -56 56 0
-57 56 -56 0
-58 54 0
-58 57 0
58 -54 -57 0
-59 13 0
-59 14 0
59 -13 -14 0
60 -59 -59 0
60 59 59 0
-60 -59 59 0
-60 59 -59 0
-61 58 0
-61 60 0
61 -58 -60 0
-62 12 0
-62 15 0
62 -12 -15 0
-63 35 0
-63 7 0
63 -35 -7 0
-64 63 0
-64 9 0
64 -63 -9 0
-65 62 0
-65 64 0
65 -62 -64 0
66 -65 -65 0
66 65 65 0
-66 -65 65 0
-66 65 -65 0
-67 61 0
-67 66 0
67 -61 -66 0
68 -35 37 0
68 35 -37 0
-68 -35 -37 0
-68 35 37 0
-69 68 0
-69 16 0
69 -68 -16 0
-70 36 0
-70 37 0
70 -36 -37 0
-71 70 0
-71 16 0
71 -70 -16 0
72 -69 -71 0
72 69 71 0
-72 -69 71 0
-72 69 -71 0
-73 67 0
-73 72 0
73 -67 -72 0
-74 40 0
-74 7 0
74 -40 -7 0
-75 74 0
-75 9 0
75 -74 -9 0
-76 62 0
-76 36 0
76 -62 -36 0
-77 76 0
-77 38 0
77 -76 -38 0
-78 75 0
-78 77 0
78 -75 -77 0
79 -78 -78 0
79 78 78 0
-79 -78 78 0
-79 78 -78 0
-80 73 0
-80 79 0
80 -73 -79 0
-81 42 0
-81 43 0
81 -42 -43 0
-82 16 0
-82 81 0
82 -16 -81 0
83 -82 -82 0
83 82 82 0
-83 -82 82 0
-83 82 -82 0
-84 80 0
-84 83 0
84 -80 -83 0
-85 41 0
-85 44 0
85 -41 -44 0
-87 86 0
-87 7 0
87 -86 -7 0
-88 87 0
-88 9 0
88 -87 -9 0
-89 85 0
-89 88 0
89 -85 -88 0
-90 77 0
-90 89 0
90 -77 -89 0
91 -90 -90 0
91 90 90 0
-91 -90 90 0
-91 90 -90 0
-92 84 0
-92 91 0
92 -84 -91 0
93 86 0
-93 -86 0
-95 93 0
-95 94 0
95 -93 -94 0
-96 95 0
-96 16 0
96 -95 -16 0
-97 45 0
-97 96 0
97 -45 -96 0
98 -97 -97 0
98 97 97 0
-98 -97 97 0
-98 97 -97 0
-99 92 0
-99 98 0
99 -92 -98 0
-100 85 0
-100 21 0
100 -85 -21 0
-101 26 0
-101 7 0
101 -26 -7 0
-102 101 0
-102 9 0
102 -101 -9 0
-103 102 0
-103 77 0
103 -102 -77 0
-104 100 0
-104 103 0
104 -100 -103 0
-105 85 0
-105 93 0
105 -85 -93 0
106 94 0
-106 -94 0
-107 105 0
-107 106 0
107 -105 -106 0
-108 107 0
-108 103 0
108 -107 -103 0
109 -104 -108 0
109 104 108 0
-109 -104 108 0
-109 104 -108 0
-110 99 0
-110 109 0
110 -99 -109 0
-111 21 0
-111 27 0
111 -21 -27 0
-112 111 0
-112 28 0
112 -111 -28 0
-113 16 0
-113 45 0
113 -16 -45 0
-114 112 0
-114 113 0
114 -112 -113 0
-115 93 0
-115 106 0
115 -93 -106 0
-116 115 0
-116 27 0
116 -115 -27 0
-117 116 0
-117 28 0
117 -116 -28 0
-118 117 0
-118 113 0
118 -117 -113 0
119 -114 -118 0
119 114 118 0
-119 -114 118 0
-119 114 -118 0
-120 110 0
-120 119 0
120 -110 -119 0
-121 2 0
-121 7 0
121 -2 -7 0
-122 121 0
-122 9 0
122 -121 -9 0
-123 30 0
-123 122 0
123 -30 -122 0
-124 77 0
-124 100 0
124 -77 -100 0
-125 123 0
-125 124 0
125 -123 -124 0
-126 77 0
-126 107 0
126 -77 -107 0
-127 123 0
-127 126 0
127 -123 -126 0
128 -125 -127 0
128 125 127 0
-128 -125 127 0
-128 125 -127 0
-129 120 0
-129 128 0
129 -120 -128 0
-131 116 0
-131 29 0
131 -116 -29 0
-132 45 0
-132 131 0
132 -45 -131 0
-133 17 0
-133 132 0
133 -17 -132 0
134 -130 -133 0
134 130 133 0
-134 -130 133 0
-134 130 -133 0
-135 129 0
-135 134 0
135 -129 -134 0
-137 136 0
-137 7 0
137 -136 -7 0
-138 137 0
-138 9 0
138 -137 -9 0
-139 138 0
-139 77 0
139 -138 -77 0
-140 30 0
-140 3 0
140 -30 -3 0
141 4 0
-141 -4 0
-142 140 0
-142 141 0
142 -140 -141 0
-143 100 0
-143 142 0
143 -100 -142 0
-144 139 0
-144 143 0
144 -139 -143 0
-145 107 0
-145 142 0
145 -107 -142 0
-146 139 0
-146 145 0
146 -139 -145 0
147 -144 -146 0
147 144 146 0
-147 -144 146 0
-147 144 -146 0
-148 135 0
-148 147 0
148 -135 -147 0
-149 3 0
-149 141 0
149 -3 -141 0
-151 149 0
-151 150 0
151 -149 -150 0
-152 46 0
-152 151 0
152 -46 -151 0
-153 113 0
-153 152 0
153 -113 -152 0
154 136 0
-154 -136 0
-155 149 0
-155 154 0
155 -149 -154 0
-157 155 0
-157 156 0
157 -155 -156 0
-158 131 0
-158 157 0
158 -131 -157 0
-159 113 0
-159 158 0
159 -113 -158 0
160 -153 -159 0
160 153 159 0
-160 -153 159 0
-160 153 -159 0
-161 148 0
-161 160 0
161 -148 -160 0
162 -50 0
162 -161 0
-162 50 161 0
162 0
